\ i_10_55_no_8

Minimize
  9.49 x_d0_c1 + 22.85 x_d0_c2 + 21.93 x_d0_c3 + 26.08 x_d0_c4 + 24.74 x_d0_c5 + 23.35 x_d0_c6 + 25.61 x_d0_c7 + 29.68 x_d0_c8 + 12.73 x_d0_c9 + 12.37 x_d0_c10 + 25.46 x_c1_c2 + 25.46 x_c2_c1 + 24.76 x_c1_c3 + 24.76 x_c3_c1 + 17.03 x_c1_c4 + 17.03 x_c4_c1 + 21.21 x_c1_c5 + 21.21 x_c5_c1 + 15.26 x_c1_c6 + 15.26 x_c6_c1 + 18.38 x_c1_c7 + 18.38 x_c7_c1 + 20.62 x_c1_c8 + 20.62 x_c8_c1 + 21.63 x_c1_c9 + 21.63 x_c9_c1 + 6.71 x_c1_c10 + 6.71 x_c10_c1 + 1.0 x_c2_c3 + 1.0 x_c3_c2 + 31.78 x_c2_c4 + 31.78 x_c4_c2 + 15.3 x_c2_c5 + 15.3 x_c5_c2 + 26.48 x_c2_c6 + 26.48 x_c6_c2 + 25.02 x_c2_c7 + 25.02 x_c7_c2 + 34.37 x_c2_c8 + 34.37 x_c8_c2 + 30.0 x_c2_c9 + 30.0 x_c9_c2 + 31.89 x_c2_c10 + 31.89 x_c10_c2 + 31.58 x_c3_c4 + 31.58 x_c4_c3 + 15.52 x_c3_c5 + 15.52 x_c5_c3 + 26.31 x_c3_c6 + 26.31 x_c6_c3 + 25.0 x_c3_c7 + 25.0 x_c7_c3 + 34.23 x_c3_c8 + 34.23 x_c8_c3 + 29.0 x_c3_c9 + 29.0 x_c9_c3 + 31.14 x_c3_c10 + 31.14 x_c10_c3 + 18.87 x_c4_c5 + 18.87 x_c5_c4 + 5.39 x_c4_c6 + 5.39 x_c6_c4 + 8.49 x_c4_c7 + 8.49 x_c7_c4 + 3.61 x_c4_c8 + 3.61 x_c8_c4 + 38.6 x_c4_c9 + 38.6 x_c9_c4 + 19.72 x_c4_c10 + 19.72 x_c10_c4 + 13.6 x_c5_c6 + 13.6 x_c6_c5 + 10.77 x_c5_c7 + 10.77 x_c7_c5 + 20.62 x_c5_c8 + 20.62 x_c8_c5 + 36.25 x_c5_c9 + 36.25 x_c9_c5 + 27.66 x_c5_c10 + 27.66 x_c10_c5 + 4.12 x_c6_c7 + 4.12 x_c7_c6 + 8.0 x_c6_c8 + 8.0 x_c8_c6 + 36.07 x_c6_c9 + 36.07 x_c9_c6 + 19.65 x_c6_c10 + 19.65 x_c10_c6 + 9.85 x_c7_c8 + 9.85 x_c8_c7 + 38.29 x_c7_c9 + 38.29 x_c9_c7 + 23.35 x_c7_c10 + 23.35 x_c10_c7 + 42.2 x_c8_c9 + 42.2 x_c9_c8 + 23.02 x_c8_c10 + 23.02 x_c10_c8 + 21.84 x_c9_c10 + 21.84 x_c10_c9 + 9.49 x_c1_D11 + 22.85 x_c2_D11 + 21.93 x_c3_D11 + 26.08 x_c4_D11 + 24.74 x_c5_D11 + 23.35 x_c6_D11 + 25.61 x_c7_D11 + 29.68 x_c8_D11 + 12.73 x_c9_D11 + 12.37 x_c10_D11
Subject To
  Successor_DV_c1: x_c1_c2 + x_c1_c3 + x_c1_c4 + x_c1_c5 + x_c1_c6 + x_c1_c7 + x_c1_c8 + x_c1_c9 + x_c1_c10 + x_c1_D11 = 1
  Successor_DV_c2: x_c2_c1 + x_c2_c3 + x_c2_c4 + x_c2_c5 + x_c2_c6 + x_c2_c7 + x_c2_c8 + x_c2_c9 + x_c2_c10 + x_c2_D11 = 1
  Successor_DV_c3: x_c3_c1 + x_c3_c2 + x_c3_c4 + x_c3_c5 + x_c3_c6 + x_c3_c7 + x_c3_c8 + x_c3_c9 + x_c3_c10 + x_c3_D11 = 1
  Successor_DV_c4: x_c4_c1 + x_c4_c2 + x_c4_c3 + x_c4_c5 + x_c4_c6 + x_c4_c7 + x_c4_c8 + x_c4_c9 + x_c4_c10 + x_c4_D11 = 1
  Successor_DV_c5: x_c5_c1 + x_c5_c2 + x_c5_c3 + x_c5_c4 + x_c5_c6 + x_c5_c7 + x_c5_c8 + x_c5_c9 + x_c5_c10 + x_c5_D11 = 1
  Successor_DV_c6: x_c6_c1 + x_c6_c2 + x_c6_c3 + x_c6_c4 + x_c6_c5 + x_c6_c7 + x_c6_c8 + x_c6_c9 + x_c6_c10 + x_c6_D11 = 1
  Successor_DV_c7: x_c7_c1 + x_c7_c2 + x_c7_c3 + x_c7_c4 + x_c7_c5 + x_c7_c6 + x_c7_c8 + x_c7_c9 + x_c7_c10 + x_c7_D11 = 1
  Successor_DV_c8: x_c8_c1 + x_c8_c2 + x_c8_c3 + x_c8_c4 + x_c8_c5 + x_c8_c6 + x_c8_c7 + x_c8_c9 + x_c8_c10 + x_c8_D11 = 1
  Successor_DV_c9: x_c9_c1 + x_c9_c2 + x_c9_c3 + x_c9_c4 + x_c9_c5 + x_c9_c6 + x_c9_c7 + x_c9_c8 + x_c9_c10 + x_c9_D11 = 1
  Successor_DV_c10: x_c10_c1 + x_c10_c2 + x_c10_c3 + x_c10_c4 + x_c10_c5 + x_c10_c6 + x_c10_c7 + x_c10_c8 + x_c10_c9 + x_c10_D11 = 1
  Flow_DV_c1: x_d0_c1 + x_c2_c1 + x_c3_c1 + x_c4_c1 + x_c5_c1 + x_c6_c1 + x_c7_c1 + x_c8_c1 + x_c9_c1 + x_c10_c1 - x_c1_c2 - x_c1_c3 - x_c1_c4 - x_c1_c5 - x_c1_c6 - x_c1_c7 - x_c1_c8 - x_c1_c9 - x_c1_c10 - x_c1_D11 = 0
  Flow_DV_c2: x_d0_c2 + x_c1_c2 + x_c3_c2 + x_c4_c2 + x_c5_c2 + x_c6_c2 + x_c7_c2 + x_c8_c2 + x_c9_c2 + x_c10_c2 - x_c2_c1 - x_c2_c3 - x_c2_c4 - x_c2_c5 - x_c2_c6 - x_c2_c7 - x_c2_c8 - x_c2_c9 - x_c2_c10 - x_c2_D11 = 0
  Flow_DV_c3: x_d0_c3 + x_c1_c3 + x_c2_c3 + x_c4_c3 + x_c5_c3 + x_c6_c3 + x_c7_c3 + x_c8_c3 + x_c9_c3 + x_c10_c3 - x_c3_c1 - x_c3_c2 - x_c3_c4 - x_c3_c5 - x_c3_c6 - x_c3_c7 - x_c3_c8 - x_c3_c9 - x_c3_c10 - x_c3_D11 = 0
  Flow_DV_c4: x_d0_c4 + x_c1_c4 + x_c2_c4 + x_c3_c4 + x_c5_c4 + x_c6_c4 + x_c7_c4 + x_c8_c4 + x_c9_c4 + x_c10_c4 - x_c4_c1 - x_c4_c2 - x_c4_c3 - x_c4_c5 - x_c4_c6 - x_c4_c7 - x_c4_c8 - x_c4_c9 - x_c4_c10 - x_c4_D11 = 0
  Flow_DV_c5: x_d0_c5 + x_c1_c5 + x_c2_c5 + x_c3_c5 + x_c4_c5 + x_c6_c5 + x_c7_c5 + x_c8_c5 + x_c9_c5 + x_c10_c5 - x_c5_c1 - x_c5_c2 - x_c5_c3 - x_c5_c4 - x_c5_c6 - x_c5_c7 - x_c5_c8 - x_c5_c9 - x_c5_c10 - x_c5_D11 = 0
  Flow_DV_c6: x_d0_c6 + x_c1_c6 + x_c2_c6 + x_c3_c6 + x_c4_c6 + x_c5_c6 + x_c7_c6 + x_c8_c6 + x_c9_c6 + x_c10_c6 - x_c6_c1 - x_c6_c2 - x_c6_c3 - x_c6_c4 - x_c6_c5 - x_c6_c7 - x_c6_c8 - x_c6_c9 - x_c6_c10 - x_c6_D11 = 0
  Flow_DV_c7: x_d0_c7 + x_c1_c7 + x_c2_c7 + x_c3_c7 + x_c4_c7 + x_c5_c7 + x_c6_c7 + x_c8_c7 + x_c9_c7 + x_c10_c7 - x_c7_c1 - x_c7_c2 - x_c7_c3 - x_c7_c4 - x_c7_c5 - x_c7_c6 - x_c7_c8 - x_c7_c9 - x_c7_c10 - x_c7_D11 = 0
  Flow_DV_c8: x_d0_c8 + x_c1_c8 + x_c2_c8 + x_c3_c8 + x_c4_c8 + x_c5_c8 + x_c6_c8 + x_c7_c8 + x_c9_c8 + x_c10_c8 - x_c8_c1 - x_c8_c2 - x_c8_c3 - x_c8_c4 - x_c8_c5 - x_c8_c6 - x_c8_c7 - x_c8_c9 - x_c8_c10 - x_c8_D11 = 0
  Flow_DV_c9: x_d0_c9 + x_c1_c9 + x_c2_c9 + x_c3_c9 + x_c4_c9 + x_c5_c9 + x_c6_c9 + x_c7_c9 + x_c8_c9 + x_c10_c9 - x_c9_c1 - x_c9_c2 - x_c9_c3 - x_c9_c4 - x_c9_c5 - x_c9_c6 - x_c9_c7 - x_c9_c8 - x_c9_c10 - x_c9_D11 = 0
  Flow_DV_c10: x_d0_c10 + x_c1_c10 + x_c2_c10 + x_c3_c10 + x_c4_c10 + x_c5_c10 + x_c6_c10 + x_c7_c10 + x_c8_c10 + x_c9_c10 - x_c10_c1 - x_c10_c2 - x_c10_c3 - x_c10_c4 - x_c10_c5 - x_c10_c6 - x_c10_c7 - x_c10_c8 - x_c10_c9 - x_c10_D11 = 0
  travel_d0_c1: tau_d0 + 0.2199 x_d0_c1 - tau_c1 + 100000 x_d0_c1 <= 100000
  travel_d0_c2: tau_d0 + 0.5294 x_d0_c2 - tau_c2 + 100000 x_d0_c2 <= 100000
  travel_d0_c3: tau_d0 + 0.508 x_d0_c3 - tau_c3 + 100000 x_d0_c3 <= 100000
  travel_d0_c4: tau_d0 + 0.6042 x_d0_c4 - tau_c4 + 100000 x_d0_c4 <= 100000
  travel_d0_c5: tau_d0 + 0.5731 x_d0_c5 - tau_c5 + 100000 x_d0_c5 <= 100000
  travel_d0_c6: tau_d0 + 0.5409 x_d0_c6 - tau_c6 + 100000 x_d0_c6 <= 100000
  travel_d0_c7: tau_d0 + 0.5933 x_d0_c7 - tau_c7 + 100000 x_d0_c7 <= 100000
  travel_d0_c8: tau_d0 + 0.6876 x_d0_c8 - tau_c8 + 100000 x_d0_c8 <= 100000
  travel_d0_c9: tau_d0 + 0.2949 x_d0_c9 - tau_c9 + 100000 x_d0_c9 <= 100000
  travel_d0_c10: tau_d0 + 0.2866 x_d0_c10 - tau_c10 + 100000 x_d0_c10 <= 100000
  travel_c1_c2: tau_c1 + 0.6898 x_c1_c2 - tau_c2 + 100000 x_c1_c2 <= 100000
  travel_c1_c3: tau_c1 + 0.6736 x_c1_c3 - tau_c3 + 100000 x_c1_c3 <= 100000
  travel_c1_c4: tau_c1 + 0.4945 x_c1_c4 - tau_c4 + 100000 x_c1_c4 <= 100000
  travel_c1_c5: tau_c1 + 0.5914 x_c1_c5 - tau_c5 + 100000 x_c1_c5 <= 100000
  travel_c1_c6: tau_c1 + 0.4535 x_c1_c6 - tau_c6 + 100000 x_c1_c6 <= 100000
  travel_c1_c7: tau_c1 + 0.5258 x_c1_c7 - tau_c7 + 100000 x_c1_c7 <= 100000
  travel_c1_c8: tau_c1 + 0.5777 x_c1_c8 - tau_c8 + 100000 x_c1_c8 <= 100000
  travel_c1_c9: tau_c1 + 0.6011 x_c1_c9 - tau_c9 + 100000 x_c1_c9 <= 100000
  travel_c1_c10: tau_c1 + 0.2554 x_c1_c10 - tau_c10 + 100000 x_c1_c10 <= 100000
  travel_c1_D11: tau_c1 + 0.3199 x_c1_D11 - tau_D11 + 100000 x_c1_D11 <= 100000
  travel_c2_c1: tau_c2 + 0.6565 x_c2_c1 - tau_c1 + 100000 x_c2_c1 <= 100000
  travel_c2_c3: tau_c2 + 0.0899 x_c2_c3 - tau_c3 + 100000 x_c2_c3 <= 100000
  travel_c2_c4: tau_c2 + 0.8029 x_c2_c4 - tau_c4 + 100000 x_c2_c4 <= 100000
  travel_c2_c5: tau_c2 + 0.4212 x_c2_c5 - tau_c5 + 100000 x_c2_c5 <= 100000
  travel_c2_c6: tau_c2 + 0.6802 x_c2_c6 - tau_c6 + 100000 x_c2_c6 <= 100000
  travel_c2_c7: tau_c2 + 0.6463 x_c2_c7 - tau_c7 + 100000 x_c2_c7 <= 100000
  travel_c2_c8: tau_c2 + 0.8629 x_c2_c8 - tau_c8 + 100000 x_c2_c8 <= 100000
  travel_c2_c9: tau_c2 + 0.7617 x_c2_c9 - tau_c9 + 100000 x_c2_c9 <= 100000
  travel_c2_c10: tau_c2 + 0.8055 x_c2_c10 - tau_c10 + 100000 x_c2_c10 <= 100000
  travel_c2_D11: tau_c2 + 0.5961 x_c2_D11 - tau_D11 + 100000 x_c2_D11 <= 100000
  travel_c3_c1: tau_c3 + 0.6569 x_c3_c1 - tau_c1 + 100000 x_c3_c1 <= 100000
  travel_c3_c2: tau_c3 + 0.1065 x_c3_c2 - tau_c2 + 100000 x_c3_c2 <= 100000
  travel_c3_c4: tau_c3 + 0.8149 x_c3_c4 - tau_c4 + 100000 x_c3_c4 <= 100000
  travel_c3_c5: tau_c3 + 0.4428 x_c3_c5 - tau_c5 + 100000 x_c3_c5 <= 100000
  travel_c3_c6: tau_c3 + 0.6928 x_c3_c6 - tau_c6 + 100000 x_c3_c6 <= 100000
  travel_c3_c7: tau_c3 + 0.6625 x_c3_c7 - tau_c7 + 100000 x_c3_c7 <= 100000
  travel_c3_c8: tau_c3 + 0.8763 x_c3_c8 - tau_c8 + 100000 x_c3_c8 <= 100000
  travel_c3_c9: tau_c3 + 0.7551 x_c3_c9 - tau_c9 + 100000 x_c3_c9 <= 100000
  travel_c3_c10: tau_c3 + 0.8047 x_c3_c10 - tau_c10 + 100000 x_c3_c10 <= 100000
  travel_c3_D11: tau_c3 + 0.5913 x_c3_D11 - tau_D11 + 100000 x_c3_D11 <= 100000
  travel_c4_c1: tau_c4 + 0.4612 x_c4_c1 - tau_c1 + 100000 x_c4_c1 <= 100000
  travel_c4_c2: tau_c4 + 0.8029 x_c4_c2 - tau_c2 + 100000 x_c4_c2 <= 100000
  travel_c4_c3: tau_c4 + 0.7983 x_c4_c3 - tau_c3 + 100000 x_c4_c3 <= 100000
  travel_c4_c5: tau_c4 + 0.5039 x_c4_c5 - tau_c5 + 100000 x_c4_c5 <= 100000
  travel_c4_c6: tau_c4 + 0.1916 x_c4_c6 - tau_c6 + 100000 x_c4_c6 <= 100000
  travel_c4_c7: tau_c4 + 0.2634 x_c4_c7 - tau_c7 + 100000 x_c4_c7 <= 100000
  travel_c4_c8: tau_c4 + 0.1503 x_c4_c8 - tau_c8 + 100000 x_c4_c8 <= 100000
  travel_c4_c9: tau_c4 + 0.9609 x_c4_c9 - tau_c9 + 100000 x_c4_c9 <= 100000
  travel_c4_c10: tau_c4 + 0.5235 x_c4_c10 - tau_c10 + 100000 x_c4_c10 <= 100000
  travel_c4_D11: tau_c4 + 0.6709 x_c4_D11 - tau_D11 + 100000 x_c4_D11 <= 100000
  travel_c5_c1: tau_c5 + 0.5747 x_c5_c1 - tau_c1 + 100000 x_c5_c1 <= 100000
  travel_c5_c2: tau_c5 + 0.4378 x_c5_c2 - tau_c2 + 100000 x_c5_c2 <= 100000
  travel_c5_c3: tau_c5 + 0.4428 x_c5_c3 - tau_c3 + 100000 x_c5_c3 <= 100000
  travel_c5_c4: tau_c5 + 0.5205 x_c5_c4 - tau_c4 + 100000 x_c5_c4 <= 100000
  travel_c5_c6: tau_c5 + 0.3984 x_c5_c6 - tau_c6 + 100000 x_c5_c6 <= 100000
  travel_c5_c7: tau_c5 + 0.3328 x_c5_c7 - tau_c7 + 100000 x_c5_c7 <= 100000
  travel_c5_c8: tau_c5 + 0.561 x_c5_c8 - tau_c8 + 100000 x_c5_c8 <= 100000
  travel_c5_c9: tau_c5 + 0.9231 x_c5_c9 - tau_c9 + 100000 x_c5_c9 <= 100000
  travel_c5_c10: tau_c5 + 0.7241 x_c5_c10 - tau_c10 + 100000 x_c5_c10 <= 100000
  travel_c5_D11: tau_c5 + 0.6564 x_c5_D11 - tau_D11 + 100000 x_c5_D11 <= 100000
  travel_c6_c1: tau_c6 + 0.4368 x_c6_c1 - tau_c1 + 100000 x_c6_c1 <= 100000
  travel_c6_c2: tau_c6 + 0.6968 x_c6_c2 - tau_c2 + 100000 x_c6_c2 <= 100000
  travel_c6_c3: tau_c6 + 0.6928 x_c6_c3 - tau_c3 + 100000 x_c6_c3 <= 100000
  travel_c6_c4: tau_c6 + 0.2082 x_c6_c4 - tau_c4 + 100000 x_c6_c4 <= 100000
  travel_c6_c5: tau_c6 + 0.3984 x_c6_c5 - tau_c5 + 100000 x_c6_c5 <= 100000
  travel_c6_c7: tau_c6 + 0.1787 x_c6_c7 - tau_c7 + 100000 x_c6_c7 <= 100000
  travel_c6_c8: tau_c6 + 0.2686 x_c6_c8 - tau_c8 + 100000 x_c6_c8 <= 100000
  travel_c6_c9: tau_c6 + 0.9189 x_c6_c9 - tau_c9 + 100000 x_c6_c9 <= 100000
  travel_c6_c10: tau_c6 + 0.5385 x_c6_c10 - tau_c10 + 100000 x_c6_c10 <= 100000
  travel_c6_D11: tau_c6 + 0.6242 x_c6_D11 - tau_D11 + 100000 x_c6_D11 <= 100000
  travel_c7_c1: tau_c7 + 0.5591 x_c7_c1 - tau_c1 + 100000 x_c7_c1 <= 100000
  travel_c7_c2: tau_c7 + 0.7129 x_c7_c2 - tau_c2 + 100000 x_c7_c2 <= 100000
  travel_c7_c3: tau_c7 + 0.7125 x_c7_c3 - tau_c3 + 100000 x_c7_c3 <= 100000
  travel_c7_c4: tau_c7 + 0.33 x_c7_c4 - tau_c4 + 100000 x_c7_c4 <= 100000
  travel_c7_c5: tau_c7 + 0.3828 x_c7_c5 - tau_c5 + 100000 x_c7_c5 <= 100000
  travel_c7_c6: tau_c7 + 0.2287 x_c7_c6 - tau_c6 + 100000 x_c7_c6 <= 100000
  travel_c7_c8: tau_c7 + 0.3615 x_c7_c8 - tau_c8 + 100000 x_c7_c8 <= 100000
  travel_c7_c9: tau_c7 + 1.0204 x_c7_c9 - tau_c9 + 100000 x_c7_c9 <= 100000
  travel_c7_c10: tau_c7 + 0.6742 x_c7_c10 - tau_c10 + 100000 x_c7_c10 <= 100000
  travel_c7_D11: tau_c7 + 0.7266 x_c7_D11 - tau_D11 + 100000 x_c7_D11 <= 100000
  travel_c8_c1: tau_c8 + 0.561 x_c8_c1 - tau_c1 + 100000 x_c8_c1 <= 100000
  travel_c8_c2: tau_c8 + 0.8795 x_c8_c2 - tau_c2 + 100000 x_c8_c2 <= 100000
  travel_c8_c3: tau_c8 + 0.8763 x_c8_c3 - tau_c3 + 100000 x_c8_c3 <= 100000
  travel_c8_c4: tau_c8 + 0.1669 x_c8_c4 - tau_c4 + 100000 x_c8_c4 <= 100000
  travel_c8_c5: tau_c8 + 0.561 x_c8_c5 - tau_c5 + 100000 x_c8_c5 <= 100000
  travel_c8_c6: tau_c8 + 0.2686 x_c8_c6 - tau_c6 + 100000 x_c8_c6 <= 100000
  travel_c8_c7: tau_c8 + 0.3115 x_c8_c7 - tau_c7 + 100000 x_c8_c7 <= 100000
  travel_c8_c9: tau_c8 + 1.0609 x_c8_c9 - tau_c9 + 100000 x_c8_c9 <= 100000
  travel_c8_c10: tau_c8 + 0.6166 x_c8_c10 - tau_c10 + 100000 x_c8_c10 <= 100000
  travel_c8_D11: tau_c8 + 0.7709 x_c8_D11 - tau_D11 + 100000 x_c8_D11 <= 100000
  travel_c9_c1: tau_c9 + 0.5678 x_c9_c1 - tau_c1 + 100000 x_c9_c1 <= 100000
  travel_c9_c2: tau_c9 + 0.7617 x_c9_c2 - tau_c2 + 100000 x_c9_c2 <= 100000
  travel_c9_c3: tau_c9 + 0.7385 x_c9_c3 - tau_c3 + 100000 x_c9_c3 <= 100000
  travel_c9_c4: tau_c9 + 0.9609 x_c9_c4 - tau_c4 + 100000 x_c9_c4 <= 100000
  travel_c9_c5: tau_c9 + 0.9065 x_c9_c5 - tau_c5 + 100000 x_c9_c5 <= 100000
  travel_c9_c6: tau_c9 + 0.9023 x_c9_c6 - tau_c6 + 100000 x_c9_c6 <= 100000
  travel_c9_c7: tau_c9 + 0.9538 x_c9_c7 - tau_c7 + 100000 x_c9_c7 <= 100000
  travel_c9_c8: tau_c9 + 1.0443 x_c9_c8 - tau_c8 + 100000 x_c9_c8 <= 100000
  travel_c9_c10: tau_c9 + 0.5727 x_c9_c10 - tau_c10 + 100000 x_c9_c10 <= 100000
  travel_c9_D11: tau_c9 + 0.3616 x_c9_D11 - tau_D11 + 100000 x_c9_D11 <= 100000
  travel_c10_c1: tau_c10 + 0.2887 x_c10_c1 - tau_c1 + 100000 x_c10_c1 <= 100000
  travel_c10_c2: tau_c10 + 0.8721 x_c10_c2 - tau_c2 + 100000 x_c10_c2 <= 100000
  travel_c10_c3: tau_c10 + 0.8547 x_c10_c3 - tau_c3 + 100000 x_c10_c3 <= 100000
  travel_c10_c4: tau_c10 + 0.5901 x_c10_c4 - tau_c4 + 100000 x_c10_c4 <= 100000
  travel_c10_c5: tau_c10 + 0.7741 x_c10_c5 - tau_c5 + 100000 x_c10_c5 <= 100000
  travel_c10_c6: tau_c10 + 0.5885 x_c10_c6 - tau_c6 + 100000 x_c10_c6 <= 100000
  travel_c10_c7: tau_c10 + 0.6742 x_c10_c7 - tau_c7 + 100000 x_c10_c7 <= 100000
  travel_c10_c8: tau_c10 + 0.6666 x_c10_c8 - tau_c8 + 100000 x_c10_c8 <= 100000
  travel_c10_c9: tau_c10 + 0.6393 x_c10_c9 - tau_c9 + 100000 x_c10_c9 <= 100000
  travel_c10_D11: tau_c10 + 0.4199 x_c10_D11 - tau_D11 + 100000 x_c10_D11 <= 100000
  time_window_d0_e: tau_d0 >= 0.0
  time_window_d0_l: tau_d0 <= 1440.0
  time_window_c1_e: tau_c1 >= 16.0
  time_window_c1_l: tau_c1 <= 18.0
  time_window_c2_e: tau_c2 >= 6.0
  time_window_c2_l: tau_c2 <= 22.0
  time_window_c3_e: tau_c3 >= 18.0
  time_window_c3_l: tau_c3 <= 20.0
  time_window_c4_e: tau_c4 >= 14.0
  time_window_c4_l: tau_c4 <= 16.0
  time_window_c5_e: tau_c5 >= 20.0
  time_window_c5_l: tau_c5 <= 22.0
  time_window_c6_e: tau_c6 >= 6.0
  time_window_c6_l: tau_c6 <= 22.0
  time_window_c7_e: tau_c7 >= 14.0
  time_window_c7_l: tau_c7 <= 16.0
  time_window_c8_e: tau_c8 >= 8.0
  time_window_c8_l: tau_c8 <= 12.0
  time_window_c9_e: tau_c9 >= 18.0
  time_window_c9_l: tau_c9 <= 20.0
  time_window_c10_e: tau_c10 >= 7.0
  time_window_c10_l: tau_c10 <= 8.0
Bounds

Generals
  tau_D11
  tau_c1
  tau_c10
  tau_c2
  tau_c3
  tau_c4
  tau_c5
  tau_c6
  tau_c7
  tau_c8
  tau_c9
  tau_d0
Binary
  x_c10_D11
  x_c10_c1
  x_c10_c2
  x_c10_c3
  x_c10_c4
  x_c10_c5
  x_c10_c6
  x_c10_c7
  x_c10_c8
  x_c10_c9
  x_c1_D11
  x_c1_c10
  x_c1_c2
  x_c1_c3
  x_c1_c4
  x_c1_c5
  x_c1_c6
  x_c1_c7
  x_c1_c8
  x_c1_c9
  x_c2_D11
  x_c2_c1
  x_c2_c10
  x_c2_c3
  x_c2_c4
  x_c2_c5
  x_c2_c6
  x_c2_c7
  x_c2_c8
  x_c2_c9
  x_c3_D11
  x_c3_c1
  x_c3_c10
  x_c3_c2
  x_c3_c4
  x_c3_c5
  x_c3_c6
  x_c3_c7
  x_c3_c8
  x_c3_c9
  x_c4_D11
  x_c4_c1
  x_c4_c10
  x_c4_c2
  x_c4_c3
  x_c4_c5
  x_c4_c6
  x_c4_c7
  x_c4_c8
  x_c4_c9
  x_c5_D11
  x_c5_c1
  x_c5_c10
  x_c5_c2
  x_c5_c3
  x_c5_c4
  x_c5_c6
  x_c5_c7
  x_c5_c8
  x_c5_c9
  x_c6_D11
  x_c6_c1
  x_c6_c10
  x_c6_c2
  x_c6_c3
  x_c6_c4
  x_c6_c5
  x_c6_c7
  x_c6_c8
  x_c6_c9
  x_c7_D11
  x_c7_c1
  x_c7_c10
  x_c7_c2
  x_c7_c3
  x_c7_c4
  x_c7_c5
  x_c7_c6
  x_c7_c8
  x_c7_c9
  x_c8_D11
  x_c8_c1
  x_c8_c10
  x_c8_c2
  x_c8_c3
  x_c8_c4
  x_c8_c5
  x_c8_c6
  x_c8_c7
  x_c8_c9
  x_c9_D11
  x_c9_c1
  x_c9_c10
  x_c9_c2
  x_c9_c3
  x_c9_c4
  x_c9_c5
  x_c9_c6
  x_c9_c7
  x_c9_c8
  x_d0_c1
  x_d0_c10
  x_d0_c2
  x_d0_c3
  x_d0_c4
  x_d0_c5
  x_d0_c6
  x_d0_c7
  x_d0_c8
  x_d0_c9
End
